c Reduced graph for p21_0 generated by Cyril Grelier
p edge 38 155
e 1 2
e 1 3
e 1 4
e 1 5
e 1 6
e 1 10
e 1 11
e 1 12
e 1 15
e 1 23
e 1 24
e 1 25
e 2 3
e 2 6
e 2 7
e 2 9
e 2 13
e 2 19
e 2 21
e 2 23
e 2 24
e 2 25
e 3 6
e 3 8
e 3 14
e 3 18
e 3 20
e 3 22
e 3 23
e 3 24
e 3 25
e 4 5
e 4 7
e 4 8
e 4 10
e 4 11
e 4 12
e 4 15
e 4 16
e 4 17
e 5 9
e 5 10
e 5 11
e 5 12
e 5 15
e 5 33
e 5 34
e 5 35
e 6 17
e 6 23
e 6 24
e 6 25
e 6 27
e 6 29
e 6 32
e 7 8
e 7 9
e 7 13
e 7 16
e 7 17
e 7 19
e 7 21
e 8 14
e 8 16
e 8 17
e 8 18
e 8 20
e 8 22
e 9 13
e 9 19
e 9 21
e 9 33
e 9 34
e 9 35
e 10 11
e 10 12
e 10 15
e 10 18
e 10 28
e 10 29
e 11 12
e 11 15
e 11 19
e 11 20
e 11 30
e 12 15
e 12 21
e 12 22
e 12 37
e 13 14
e 13 19
e 13 21
e 13 26
e 13 27
e 13 36
e 14 18
e 14 20
e 14 22
e 14 26
e 14 27
e 14 36
e 15 31
e 15 32
e 15 38
e 16 17
e 16 26
e 16 28
e 16 30
e 16 31
e 17 27
e 17 29
e 17 32
e 18 20
e 18 22
e 18 28
e 18 29
e 19 20
e 19 21
e 19 30
e 20 22
e 20 30
e 21 22
e 21 37
e 22 37
e 23 24
e 23 25
e 23 33
e 23 36
e 24 25
e 24 34
e 24 38
e 25 35
e 25 37
e 26 27
e 26 28
e 26 30
e 26 31
e 26 36
e 27 29
e 27 32
e 27 36
e 28 29
e 28 30
e 28 31
e 29 32
e 30 31
e 31 32
e 31 38
e 32 38
e 33 34
e 33 35
e 33 36
e 34 35
e 34 38
e 35 37
